 $SYSTEM MWORDS=16 $END
 $CONTRL RUNTYP=OPTIMIZE $END
 $STATPT HSSEND=.TRUE. $END
 $CONTRL MAXIT=100 ICHARG=0 MULT=1 $END
 $CONTRL SCFTYP=RHF $END
 $BASIS GBASIS=sto NGAUSS=3 $END
 $DATA
Molecule specification
C1
  H    1    -0.326647    1.525353   -0.586549
  O    8    -0.577679    0.715972   -0.136089
  H    1    -1.294003    0.374551   -0.675849
  H    1     0.060011    0.159593   -0.184282
  O    8    -0.483611   -0.629627   -0.132941
  H    1    -1.114255   -0.511573   -0.846650
 $END
