 $SYSTEM MWORDS=16 $END
 $CONTRL RUNTYP=OPTIMIZE $END
 $STATPT HSSEND=.TRUE. $END
 $CONTRL MAXIT=100 ICHARG=0 MULT=1 $END
 $CONTRL SCFTYP=RHF $END
 $BASIS GBASIS=sto NGAUSS=3 $END
 $DATA
Molecule specification
C1
  H    1     0.944488    1.366117   -0.599576
  O    8     0.113489    1.068397   -0.222971
  H    1    -0.360212    0.717268   -0.980167
  H    1    -0.696284   -1.300571   -0.472746
  O    8    -1.471701   -1.349153    0.090634
  H    1    -2.158995   -0.943302   -0.442228
 $END
