 $SYSTEM MWORDS=16 $END
 $CONTRL RUNTYP=OPTIMIZE $END
 $STATPT HSSEND=.TRUE. $END
 $CONTRL MAXIT=100 ICHARG=0 MULT=1 $END
 $CONTRL SCFTYP=RHF $END
 $BASIS GBASIS=sto NGAUSS=3 $END
 $DATA
Molecule specification
C1
  H    1    -0.134105    0.660924   -1.267057
  O    8     0.110820   -0.005403   -0.621263
  H    1    -0.142714   -0.828546   -1.044565
  H    1    -1.550922   -0.901583    1.388433
  O    8    -2.380031   -0.428558    1.289160
  H    1    -2.101574    0.471419    1.106040
 $END
