 $SYSTEM MWORDS=16 $END
 $CONTRL RUNTYP=OPTIMIZE $END
 $STATPT HSSEND=.TRUE. $END
 $CONTRL MAXIT=100 ICHARG=0 MULT=1 $END
 $CONTRL SCFTYP=RHF $END
 $BASIS GBASIS=sto NGAUSS=3 $END
 $DATA
Molecule specification
C1
  H    1     0.421771    0.623127   -1.034742
  O    8    -0.015876   -0.017802   -0.470203
  H    1    -0.422769   -0.622367   -1.094676
  H    1    -2.086350   -0.168445    0.039508
  O    8    -2.874939    0.361202    0.176004
  H    1    -2.525781    1.214984    0.440908
 $END
