 $SYSTEM MWORDS=16 $END
 $CONTRL RUNTYP=OPTIMIZE $END
 $STATPT HSSEND=.TRUE. $END
 $CONTRL MAXIT=100 ICHARG=0 MULT=1 $END
 $CONTRL SCFTYP=RHF $END
 $BASIS GBASIS=sto NGAUSS=3 $END
 $DATA
Molecule specification
C1
  H    1    -1.334410   -0.143279    0.389085
  O    8    -1.808633   -0.796241   -0.130319
  H    1    -2.397304   -1.203459    0.508953
  H    1    -1.293765    2.240710    1.331180
  O    8    -0.974077    2.076916    0.441237
  H    1    -1.618046    2.524604   -0.111852
 $END
