%chk=hg2w1.chk
# hf/3-21g geom=connectivity

Title Card Required

0 1
 O                  0.32102517   -0.91753836    0.00000000
 H                  1.28102514   -0.91729726    0.00000000
 H                  0.00079787   -0.01252208    0.00000000
 Hg                 0.60135079   -1.22860742   -0.11701529

 1 2 1.0 3 1.0
 2
 3
 4

