 $CONTRL RUNTYP=Energy $END
 $CONTRL SCFTYP=RHF $END
 $BASIS GBASIS=sto NGAUSS=           3  $END
 $CONTRL ICHARG=           0  MULT=           1  $END
 $DATA
 Molecule specification
 C1
H   1               0.090828              -0.467547               0.420853
O   8              -0.621346              -0.094532              -0.103262
H   1              -1.410682              -0.457035               0.304866
H   1              -2.423133               0.923920               1.464863
O   8              -3.044567               0.900268               0.733912
H   1              -3.035455              -0.020811               0.464543
Xx  0              -3.500000              -3.500000              -3.500000
Xx  0               3.500000              -3.500000              -3.500000
Xx  0               3.500000               3.500000              -3.500000
Xx  0               3.500000               3.500000               3.500000
Xx  0              -3.500000               3.500000              -3.500000
Xx  0              -3.500000               3.500000               3.500000
Xx  0              -3.500000              -3.500000               3.500000
Xx  0               3.500000              -3.500000               3.500000
 $END
